19 20
5 10 1
1 10 1
7 3 2
3 4 1
9 2 1
2 10 1
1 3 1
8 10 1
8 3 1
1 7 1
4 1 1
10 8 1
7 2 1
1 5 1
1 4 1
8 6 1
9 5 1
2 5 1
9 6 1
30 30 
30 30 
30 30 
30 30 
30 30 
30 30 
30 30 
30 30 
30 30 
30 30 
30 30 
30 30 
30 30 
30 30 
30 30 
30 30 
30 30 
30 30 
30 30 
30 30 
